c 1 A1
c 2 C2
c 3 A3
c 4 A5
c 5 A6
c 6 C7
c 7 C8
c 8 C9
c 9 C10
c 10 C11
c 11 C12
c 12 C13
c 13 A4
c 14 C15
c 15 C16
c 16 A14
c 17 C17
c 18 C18
c 19 C19
c 20 C20
c 21 C21
p cnf 21 29
1 0
1 -2 0
1 -3 0
1 -13 0
3 -4 0
4 -5 0
5 -6 0
5 -7 0
5 -8 0
5 -9 0
5 -10 0
5 -11 0
5 -12 0
13 -16 0
13 -14 0
13 -15 0
16 -13 0
14 -13 0
15 -13 0
16 -17 0
16 -18 0
16 -19 0
16 -20 0
16 -21 0
20 -16 0
21 -16 0
-2 0
20 0
14 10 0

